NAME : D-n10-k3
CAPACITY : 736
NODE_COORD_SECTION
1   107   192
2   465   288
3   334   72
4   159   296
5   93   419
6   232   397
7   205   240
8   239   340
9   51   358
10   194   79
DEMAND_SECTION
1   0
2   53
3   72
4   17
5   82
6   7
7   24
8   8
9   68
10   54
DEPOT_SECTION
    1
    -1
EOF